\ This file has been generated by DOcplex
\ ENCODING=ISO-8859-1
\Problem name: dectiger problem

Maximize
 obj: - 36.483593750000 aj_u0_x0 - 88 aj_u1_x0 - 33.000000000000 aj_u2_x0
      - 88 aj_u3_x0 - 62.500000000000 aj_u4_x0 - 87.500000000000 aj_u5_x0
      - 33.000000000000 aj_u6_x0 - 87.500000000000 aj_u7_x0
      - 27.500000000000 aj_u8_x0 - 34.172656250000 aj_u0_x1
      - 33.000000000000 aj_u1_x1 - 88 aj_u2_x1 - 33.000000000000 aj_u3_x1
      - 27.500000000000 aj_u4_x1 - 87.500000000000 aj_u5_x1 - 88 aj_u6_x1
      - 87.500000000000 aj_u7_x1 - 62.500000000000 aj_u8_x1
Subject To
 c1: 72.967187500000 aj_u0_x0 + 176 aj_u1_x0 + 66.000000000000 aj_u2_x0
     + 176 aj_u3_x0 + 125 aj_u4_x0 + 175 aj_u5_x0 + 66.000000000000 aj_u6_x0
     + 175 aj_u7_x0 + 55.000000000000 aj_u8_x0 - 72.967187500000 a0_u0
     - 176 a0_u1 - 66.000000000000 a0_u2 >= 0
 c2: 72.967187500000 aj_u0_x0 + 176 aj_u1_x0 + 66.000000000000 aj_u2_x0
     + 176 aj_u3_x0 + 125 aj_u4_x0 + 175 aj_u5_x0 + 66.000000000000 aj_u6_x0
     + 175 aj_u7_x0 + 55.000000000000 aj_u8_x0 - 176 a0_u0 - 125 a0_u1
     - 175 a0_u2 >= 0
 c3: 72.967187500000 aj_u0_x0 + 176 aj_u1_x0 + 66.000000000000 aj_u2_x0
     + 176 aj_u3_x0 + 125 aj_u4_x0 + 175 aj_u5_x0 + 66.000000000000 aj_u6_x0
     + 175 aj_u7_x0 + 55.000000000000 aj_u8_x0 - 66.000000000000 a0_u0
     - 175 a0_u1 - 55.000000000000 a0_u2 >= 0
 c4: 68.345312500000 aj_u0_x1 + 66.000000000000 aj_u1_x1 + 176 aj_u2_x1
     + 66.000000000000 aj_u3_x1 + 55.000000000000 aj_u4_x1 + 175 aj_u5_x1
     + 176 aj_u6_x1 + 175 aj_u7_x1 + 125 aj_u8_x1 - 68.345312500000 a0_u0
     - 66.000000000000 a0_u1 - 176 a0_u2 >= 0
 c5: 68.345312500000 aj_u0_x1 + 66.000000000000 aj_u1_x1 + 176 aj_u2_x1
     + 66.000000000000 aj_u3_x1 + 55.000000000000 aj_u4_x1 + 175 aj_u5_x1
     + 176 aj_u6_x1 + 175 aj_u7_x1 + 125 aj_u8_x1 - 66.000000000000 a0_u0
     - 55.000000000000 a0_u1 - 175 a0_u2 >= 0
 c6: 68.345312500000 aj_u0_x1 + 66.000000000000 aj_u1_x1 + 176 aj_u2_x1
     + 66.000000000000 aj_u3_x1 + 55.000000000000 aj_u4_x1 + 175 aj_u5_x1
     + 176 aj_u6_x1 + 175 aj_u7_x1 + 125 aj_u8_x1 - 176 a0_u0 - 175 a0_u1
     - 125 a0_u2 >= 0
 c7: a0_u0 + a0_u1 + a0_u2 = 1
 c8: a1_u0_x0 + a1_u1_x0 + a1_u2_x0 = 1
 c9: aj_u0_x0 + aj_u1_x0 + aj_u2_x0 + aj_u3_x0 + aj_u4_x0 + aj_u5_x0 + aj_u6_x0
     + aj_u7_x0 + aj_u8_x0 = 1
 c10: a1_u0_x1 + a1_u1_x1 + a1_u2_x1 = 1
 c11: aj_u0_x1 + aj_u1_x1 + aj_u2_x1 + aj_u3_x1 + aj_u4_x1 + aj_u5_x1 + aj_u6_x1
      + aj_u7_x1 + aj_u8_x1 = 1
 c12: aj_u0_x0 + aj_u1_x0 + aj_u2_x0 - a0_u0 = 0
 c13: aj_u3_x0 + aj_u4_x0 + aj_u5_x0 - a0_u1 = 0
 c14: aj_u6_x0 + aj_u7_x0 + aj_u8_x0 - a0_u2 = 0
 c15: aj_u0_x1 + aj_u1_x1 + aj_u2_x1 - a0_u0 = 0
 c16: aj_u3_x1 + aj_u4_x1 + aj_u5_x1 - a0_u1 = 0
 c17: aj_u6_x1 + aj_u7_x1 + aj_u8_x1 - a0_u2 = 0
 c18: aj_u0_x0 + aj_u3_x0 + aj_u6_x0 - a1_u0_x0 = 0
 c19: aj_u1_x0 + aj_u4_x0 + aj_u7_x0 - a1_u1_x0 = 0
 c20: aj_u2_x0 + aj_u5_x0 + aj_u8_x0 - a1_u2_x0 = 0
 c21: aj_u0_x1 + aj_u3_x1 + aj_u6_x1 - a1_u0_x1 = 0
 c22: aj_u1_x1 + aj_u4_x1 + aj_u7_x1 - a1_u1_x1 = 0
 c23: aj_u2_x1 + aj_u5_x1 + aj_u8_x1 - a1_u2_x1 = 0

Bounds
       a0_u0 <= 1
       a0_u1 <= 1
       a0_u2 <= 1
 0 <= a1_u0_x0 <= 1
 0 <= a1_u1_x0 <= 1
 0 <= a1_u2_x0 <= 1
       aj_u0_x0 <= 1
       aj_u1_x0 <= 1
       aj_u2_x0 <= 1
       aj_u3_x0 <= 1
       aj_u4_x0 <= 1
       aj_u5_x0 <= 1
       aj_u6_x0 <= 1
       aj_u7_x0 <= 1
       aj_u8_x0 <= 1
 0 <= a1_u0_x1 <= 1
 0 <= a1_u1_x1 <= 1
 0 <= a1_u2_x1 <= 1
       aj_u0_x1 <= 1
       aj_u1_x1 <= 1
       aj_u2_x1 <= 1
       aj_u3_x1 <= 1
       aj_u4_x1 <= 1
       aj_u5_x1 <= 1
       aj_u6_x1 <= 1
       aj_u7_x1 <= 1
       aj_u8_x1 <= 1

Binaries
 a1_u0_x0 a1_u1_x0 a1_u2_x0 a1_u0_x1 a1_u1_x1 a1_u2_x1
End
